benchmarks_CP/INST_36x36/35/inst36x36_35_3.dzn
S=6;
start=[|
3,	8,	10,	9,	-1,	11,	2,	-1,	-1,	-1,	-1,	-1,	14,	-1,	15,	24,	-1,	-1,	19,	-1,	4,	-1,	-1,	-1,	-1,	-1,	-1,	26,	-1,	-1,	-1,	22,	29,	-1,	-1,	-1|
-1,	-1,	-1,	-1,	-1,	6,	-1,	-1,	-1,	-1,	35,	-1,	-1,	8,	-1,	29,	34,	-1,	-1,	-1,	-1,	-1,	-1,	-1,	36,	-1,	-1,	28,	-1,	-1,	-1,	-1,	25,	-1,	-1,	7|
-1,	-1,	-1,	-1,	-1,	34,	11,	-1,	5,	-1,	-1,	-1,	-1,	-1,	-1,	-1,	-1,	-1,	36,	-1,	-1,	-1,	-1,	-1,	-1,	1,	-1,	-1,	-1,	-1,	3,	26,	-1,	6,	-1,	23|
-1,	15,	16,	28,	-1,	27,	-1,	29,	-1,	-1,	-1,	-1,	-1,	-1,	26,	23,	9,	-1,	-1,	-1,	11,	-1,	13,	-1,	8,	24,	-1,	-1,	-1,	-1,	35,	-1,	-1,	32,	10,	-1|
-1,	-1,	12,	-1,	-1,	13,	-1,	-1,	19,	25,	-1,	36,	11,	-1,	6,	-1,	-1,	-1,	17,	3,	-1,	-1,	-1,	-1,	-1,	-1,	5,	29,	-1,	10,	30,	18,	-1,	-1,	-1,	24|
25,	-1,	-1,	-1,	31,	-1,	-1,	32,	-1,	-1,	12,	-1,	19,	13,	-1,	-1,	-1,	27,	-1,	-1,	-1,	-1,	6,	-1,	4,	-1,	-1,	30,	-1,	34,	2,	-1,	33,	-1,	-1,	-1|
32,	-1,	-1,	8,	-1,	35,	-1,	-1,	-1,	19,	-1,	-1,	-1,	-1,	7,	-1,	-1,	14,	-1,	-1,	-1,	-1,	-1,	-1,	3,	-1,	18,	-1,	10,	-1,	28,	-1,	-1,	36,	-1,	-1|
-1,	-1,	-1,	13,	19,	-1,	-1,	-1,	-1,	16,	24,	-1,	-1,	-1,	20,	5,	30,	-1,	33,	-1,	34,	-1,	-1,	-1,	23,	6,	2,	14,	26,	-1,	9,	-1,	-1,	17,	-1,	-1|
-1,	3,	27,	33,	-1,	23,	-1,	9,	-1,	2,	-1,	15,	22,	11,	-1,	-1,	-1,	-1,	-1,	-1,	-1,	5,	32,	29,	-1,	31,	-1,	-1,	-1,	-1,	-1,	-1,	-1,	-1,	-1,	-1|
-1,	22,	-1,	26,	-1,	14,	-1,	6,	-1,	11,	-1,	-1,	-1,	-1,	13,	-1,	-1,	-1,	-1,	-1,	-1,	-1,	-1,	-1,	34,	-1,	8,	-1,	-1,	-1,	4,	25,	-1,	-1,	-1,	-1|
-1,	5,	-1,	-1,	-1,	-1,	-1,	14,	34,	-1,	-1,	-1,	-1,	-1,	-1,	-1,	-1,	-1,	-1,	15,	-1,	-1,	17,	27,	-1,	-1,	-1,	-1,	4,	-1,	-1,	-1,	-1,	-1,	8,	-1|
-1,	-1,	-1,	-1,	-1,	21,	-1,	-1,	8,	36,	32,	-1,	23,	-1,	34,	26,	-1,	29,	-1,	4,	2,	-1,	22,	-1,	28,	-1,	-1,	-1,	-1,	-1,	20,	-1,	19,	-1,	24,	-1|
-1,	-1,	-1,	-1,	-1,	-1,	-1,	-1,	-1,	-1,	-1,	-1,	9,	-1,	4,	-1,	-1,	-1,	-1,	-1,	18,	35,	-1,	-1,	17,	22,	-1,	-1,	5,	-1,	-1,	28,	26,	-1,	-1,	-1|
-1,	-1,	-1,	-1,	-1,	-1,	-1,	-1,	-1,	-1,	-1,	-1,	-1,	-1,	27,	-1,	18,	6,	-1,	-1,	-1,	22,	-1,	-1,	-1,	-1,	-1,	21,	13,	-1,	-1,	8,	-1,	23,	-1,	16|
29,	-1,	-1,	23,	-1,	-1,	-1,	-1,	-1,	-1,	-1,	-1,	-1,	-1,	28,	-1,	-1,	19,	30,	16,	-1,	-1,	-1,	-1,	-1,	-1,	-1,	-1,	-1,	-1,	-1,	-1,	-1,	-1,	-1,	-1|
35,	-1,	22,	-1,	-1,	12,	13,	-1,	-1,	-1,	-1,	-1,	-1,	-1,	-1,	16,	-1,	-1,	-1,	34,	-1,	-1,	23,	17,	24,	4,	-1,	-1,	31,	8,	-1,	-1,	18,	-1,	-1,	-1|
-1,	-1,	-1,	-1,	34,	-1,	-1,	-1,	-1,	-1,	16,	-1,	-1,	-1,	-1,	-1,	-1,	23,	5,	-1,	-1,	10,	-1,	-1,	12,	-1,	-1,	25,	32,	-1,	-1,	7,	24,	-1,	20,	4|
-1,	-1,	-1,	-1,	17,	-1,	-1,	33,	-1,	-1,	-1,	-1,	-1,	-1,	-1,	22,	8,	-1,	12,	-1,	-1,	-1,	-1,	-1,	15,	-1,	-1,	-1,	-1,	35,	-1,	5,	-1,	3,	-1,	32|
-1,	20,	-1,	-1,	-1,	36,	33,	-1,	-1,	28,	-1,	-1,	4,	-1,	-1,	-1,	2,	-1,	-1,	-1,	-1,	1,	19,	11,	6,	-1,	-1,	-1,	-1,	-1,	-1,	-1,	5,	29,	-1,	-1|
24,	29,	-1,	3,	-1,	4,	-1,	-1,	15,	-1,	-1,	-1,	-1,	12,	-1,	33,	-1,	36,	-1,	-1,	-1,	-1,	14,	16,	-1,	-1,	-1,	32,	23,	-1,	-1,	-1,	27,	25,	-1,	-1|
-1,	31,	26,	-1,	18,	32,	-1,	-1,	-1,	9,	1,	-1,	-1,	-1,	-1,	-1,	-1,	-1,	-1,	-1,	-1,	-1,	-1,	-1,	-1,	11,	3,	5,	-1,	4,	33,	-1,	-1,	-1,	-1,	10|
11,	-1,	-1,	30,	-1,	28,	-1,	12,	-1,	6,	26,	-1,	34,	-1,	9,	20,	15,	-1,	-1,	-1,	35,	24,	8,	-1,	19,	29,	17,	-1,	25,	-1,	-1,	32,	-1,	-1,	-1,	-1|
-1,	14,	-1,	-1,	-1,	16,	32,	-1,	-1,	23,	34,	-1,	-1,	26,	29,	-1,	19,	3,	-1,	-1,	28,	-1,	2,	-1,	-1,	9,	-1,	-1,	7,	-1,	11,	-1,	-1,	-1,	35,	-1|
21,	34,	-1,	12,	2,	-1,	22,	-1,	3,	29,	4,	-1,	5,	-1,	16,	-1,	-1,	-1,	-1,	-1,	-1,	-1,	-1,	-1,	14,	-1,	35,	-1,	-1,	-1,	-1,	-1,	23,	-1,	-1,	-1|
4,	-1,	-1,	34,	1,	-1,	16,	26,	2,	22,	-1,	-1,	-1,	24,	-1,	-1,	-1,	-1,	-1,	-1,	-1,	3,	-1,	13,	-1,	-1,	-1,	-1,	14,	-1,	25,	35,	-1,	-1,	17,	-1|
6,	35,	-1,	2,	-1,	-1,	-1,	-1,	-1,	-1,	-1,	-1,	-1,	-1,	23,	1,	-1,	-1,	22,	-1,	15,	-1,	25,	-1,	18,	12,	-1,	-1,	-1,	17,	-1,	16,	-1,	24,	26,	-1|
-1,	-1,	14,	18,	-1,	-1,	-1,	-1,	20,	-1,	3,	-1,	17,	-1,	2,	9,	21,	15,	-1,	-1,	-1,	-1,	4,	-1,	-1,	-1,	36,	-1,	-1,	23,	22,	-1,	-1,	28,	31,	-1|
26,	-1,	-1,	22,	29,	-1,	-1,	-1,	-1,	8,	-1,	-1,	27,	5,	-1,	10,	-1,	-1,	-1,	-1,	23,	-1,	-1,	-1,	-1,	-1,	-1,	-1,	-1,	-1,	21,	-1,	13,	20,	4,	-1|
-1,	27,	17,	-1,	36,	33,	29,	-1,	-1,	1,	-1,	-1,	-1,	32,	-1,	-1,	13,	-1,	-1,	-1,	-1,	11,	-1,	-1,	21,	-1,	-1,	-1,	-1,	-1,	14,	23,	10,	2,	3,	12|
-1,	-1,	-1,	-1,	12,	5,	-1,	-1,	-1,	-1,	-1,	-1,	-1,	-1,	8,	-1,	26,	-1,	16,	-1,	17,	32,	20,	-1,	-1,	10,	-1,	-1,	2,	31,	27,	33,	30,	-1,	-1,	19|
34,	1,	35,	-1,	-1,	-1,	-1,	-1,	-1,	18,	-1,	7,	-1,	-1,	17,	6,	14,	-1,	23,	12,	13,	8,	-1,	36,	31,	33,	-1,	15,	-1,	-1,	-1,	-1,	-1,	-1,	29,	-1|
-1,	-1,	-1,	31,	11,	-1,	8,	16,	-1,	-1,	-1,	-1,	1,	-1,	35,	-1,	-1,	-1,	4,	-1,	-1,	-1,	-1,	28,	-1,	23,	-1,	12,	3,	6,	-1,	14,	-1,	33,	-1,	-1|
7,	-1,	-1,	-1,	-1,	-1,	-1,	-1,	-1,	-1,	-1,	-1,	-1,	9,	-1,	-1,	-1,	-1,	-1,	-1,	-1,	-1,	33,	-1,	-1,	-1,	22,	-1,	17,	18,	-1,	12,	-1,	10,	-1,	-1|
-1,	-1,	32,	-1,	-1,	-1,	31,	-1,	-1,	-1,	-1,	-1,	-1,	28,	-1,	30,	-1,	4,	24,	-1,	26,	17,	34,	-1,	-1,	-1,	-1,	20,	-1,	-1,	-1,	-1,	-1,	-1,	-1,	-1|
27,	-1,	-1,	-1,	-1,	-1,	28,	34,	-1,	-1,	-1,	13,	-1,	29,	-1,	-1,	-1,	33,	20,	-1,	-1,	-1,	10,	-1,	-1,	-1,	-1,	-1,	-1,	-1,	23,	-1,	-1,	5,	-1,	17|
2,	9,	-1,	16,	-1,	-1,	-1,	-1,	-1,	33,	17,	6,	-1,	-1,	-1,	-1,	23,	5,	1,	14,	-1,	-1,	31,	-1,	27,	-1,	25,	4,	-1,	-1,	-1,	-1,	20,	-1,	-1,	11|];
